/* Objective function */
max: +t;

/* Constraints */
+0.529352664948 pi1 +0.543587863445 pi2 +0.636816442013 pi3 +0.574760437012 pi4 +0.544684171677 pi5 -t >= 0;
+0.636674404144 pi1 +0.530373215675 pi2 +0.71385037899 pi3 +0.666939556599 pi4 +0.57161295414 pi5 -t >= 0;
+0.538039803505 pi1 +0.565405011177 pi2 +0.532920897007 pi3 +0.657468676567 pi4 +0.540077328682 pi5 -t >= 0;
+0.542820334435 pi1 +0.515504777431 pi2 +0.628374576569 pi3 +0.534515857697 pi4 +0.6297057271 pi5 -t >= 0;
+0.581477284431 pi1 +0.633926272392 pi2 +0.672949373722 pi3 +0.725761055946 pi4 +0.529723346233 pi5 -t >= 0;
+pi1 +pi2 +pi3 +pi4 +pi5 = 1;
